p cnf 92 349
1 2 3 4 5 6 7 8 9 0
20 21 22 23 24 25 26 27 28 29 0
74 75 76 77 78 79 80 81 82 83 0
84 85 86 87 88 89 90 91 92 0
-1 -10 0
-1 -20 0
-1 -30 0
-1 -47 0
-1 -56 0
-1 -66 0
-1 -74 0
-1 -84 0
-10 -20 0
-10 -30 0
-10 -47 0
-10 -56 0
-10 -66 0
-10 -74 0
-10 -84 0
-20 -30 0
-20 -47 0
-20 -56 0
-20 -66 0
-20 -74 0
-20 -84 0
-30 -47 0
-30 -56 0
-30 -66 0
-30 -74 0
-30 -84 0
-47 -56 0
-47 -66 0
-47 -74 0
-47 -84 0
-56 -66 0
-56 -74 0
-56 -84 0
-66 -74 0
-66 -84 0
-74 -84 0
-2 -11 0
-2 -21 0
-2 -31 0
-2 -48 0
-2 -57 0
-2 -67 0
-2 -75 0
-11 -21 0
-11 -31 0
-11 -48 0
-11 -57 0
-11 -67 0
-11 -75 0
-21 -31 0
-21 -48 0
-21 -57 0
-21 -67 0
-21 -75 0
-31 -48 0
-31 -57 0
-31 -67 0
-31 -75 0
-48 -57 0
-48 -67 0
-48 -75 0
-57 -67 0
-57 -75 0
-67 -75 0
-12 -22 0
-12 -32 0
-12 -40 0
-12 -49 0
-12 -58 0
-12 -68 0
-12 -76 0
-12 -85 0
-22 -32 0
-22 -40 0
-22 -49 0
-22 -58 0
-22 -68 0
-22 -76 0
-22 -85 0
-32 -40 0
-32 -49 0
-32 -58 0
-32 -68 0
-32 -76 0
-32 -85 0
-40 -49 0
-40 -58 0
-40 -68 0
-40 -76 0
-40 -85 0
-49 -58 0
-49 -68 0
-49 -76 0
-49 -85 0
-58 -68 0
-58 -76 0
-58 -85 0
-68 -76 0
-68 -85 0
-76 -85 0
-3 -13 0
-3 -23 0
-3 -33 0
-3 -41 0
-3 -50 0
-3 -59 0
-3 -69 0
-3 -77 0
-3 -86 0
-13 -23 0
-13 -33 0
-13 -41 0
-13 -50 0
-13 -59 0
-13 -69 0
-13 -77 0
-13 -86 0
-23 -33 0
-23 -41 0
-23 -50 0
-23 -59 0
-23 -69 0
-23 -77 0
-23 -86 0
-33 -41 0
-33 -50 0
-33 -59 0
-33 -69 0
-33 -77 0
-33 -86 0
-41 -50 0
-41 -59 0
-41 -69 0
-41 -77 0
-41 -86 0
-50 -59 0
-50 -69 0
-50 -77 0
-50 -86 0
-59 -69 0
-59 -77 0
-59 -86 0
-69 -77 0
-69 -86 0
-77 -86 0
-4 -14 0
-4 -24 0
-4 -34 0
-4 -51 0
-4 -60 0
-4 -70 0
-4 -78 0
-4 -87 0
-14 -24 0
-14 -34 0
-14 -51 0
-14 -60 0
-14 -70 0
-14 -78 0
-14 -87 0
-24 -34 0
-24 -51 0
-24 -60 0
-24 -70 0
-24 -78 0
-24 -87 0
-34 -51 0
-34 -60 0
-34 -70 0
-34 -78 0
-34 -87 0
-51 -60 0
-51 -70 0
-51 -78 0
-51 -87 0
-60 -70 0
-60 -78 0
-60 -87 0
-70 -78 0
-70 -87 0
-78 -87 0
-5 -15 0
-5 -25 0
-5 -35 0
-5 -42 0
-5 -52 0
-5 -61 0
-5 -79 0
-5 -88 0
-15 -25 0
-15 -35 0
-15 -42 0
-15 -52 0
-15 -61 0
-15 -79 0
-15 -88 0
-25 -35 0
-25 -42 0
-25 -52 0
-25 -61 0
-25 -79 0
-25 -88 0
-35 -42 0
-35 -52 0
-35 -61 0
-35 -79 0
-35 -88 0
-42 -52 0
-42 -61 0
-42 -79 0
-42 -88 0
-52 -61 0
-52 -79 0
-52 -88 0
-61 -79 0
-61 -88 0
-79 -88 0
-6 -16 0
-6 -26 0
-6 -36 0
-6 -43 0
-6 -53 0
-6 -62 0
-6 -71 0
-6 -80 0
-16 -26 0
-16 -36 0
-16 -43 0
-16 -53 0
-16 -62 0
-16 -71 0
-16 -80 0
-26 -36 0
-26 -43 0
-26 -53 0
-26 -62 0
-26 -71 0
-26 -80 0
-36 -43 0
-36 -53 0
-36 -62 0
-36 -71 0
-36 -80 0
-43 -53 0
-43 -62 0
-43 -71 0
-43 -80 0
-53 -62 0
-53 -71 0
-53 -80 0
-62 -71 0
-62 -80 0
-71 -80 0
-7 -17 0
-7 -27 0
-7 -44 0
-7 -63 0
-7 -72 0
-7 -81 0
-7 -89 0
-17 -27 0
-17 -44 0
-17 -63 0
-17 -72 0
-17 -81 0
-17 -89 0
-27 -44 0
-27 -63 0
-27 -72 0
-27 -81 0
-27 -89 0
-44 -63 0
-44 -72 0
-44 -81 0
-44 -89 0
-63 -72 0
-63 -81 0
-63 -89 0
-72 -81 0
-72 -89 0
-81 -89 0
-8 -18 0
-8 -37 0
-8 -54 0
-8 -82 0
-8 -90 0
-18 -37 0
-18 -54 0
-18 -82 0
-18 -90 0
-37 -54 0
-37 -82 0
-37 -90 0
-54 -82 0
-54 -90 0
-82 -90 0
-28 -38 0
-28 -45 0
-28 -55 0
-28 -64 0
-28 -73 0
-28 -83 0
-28 -91 0
-38 -45 0
-38 -55 0
-38 -64 0
-38 -73 0
-38 -83 0
-38 -91 0
-45 -55 0
-45 -64 0
-45 -73 0
-45 -83 0
-45 -91 0
-55 -64 0
-55 -73 0
-55 -83 0
-55 -91 0
-64 -73 0
-64 -83 0
-64 -91 0
-73 -83 0
-73 -91 0
-83 -91 0
-9 -19 0
-9 -29 0
-9 -39 0
-9 -46 0
-9 -65 0
-9 -92 0
-19 -29 0
-19 -39 0
-19 -46 0
-19 -65 0
-19 -92 0
-29 -39 0
-29 -46 0
-29 -65 0
-29 -92 0
-39 -46 0
-39 -65 0
-39 -92 0
-46 -65 0
-46 -92 0
-65 -92 0
